%chk=D:\Msc Materials and Assignments\Semester 4\Project Work\AfatinibDrawn.chk
# hf/3-21g geom=connectivity

Title Card Required

0 1
 C                  1.83837822    3.82681595    2.29657522
 C                  2.67563645    4.92714702    2.42233120
 C                  2.14111603    6.19871297    2.23687488
 C                  0.04042483    5.24762227    1.88401039
 H                  4.42786053    3.78344376    2.90949948
 C                  4.03615017    4.75971328    2.71289826
 C                  2.97740904    7.31904666    2.30510304
 H                 -1.00249305    5.36905775    1.68280458
 C                  4.35053197    7.15428841    2.53639652
 C                  4.88554124    5.87190713    2.72485751
 H                  2.57292415    8.29961246    2.17630091
 N                  0.82964392    6.33294872    1.98868102
 N                  0.54291052    4.01134570    2.02780289
 N                  2.37458799    2.46945359    2.44437293
 H                  2.21996842    2.14555556    3.37842928
 C                  1.69477653    1.59658637    1.48237263
 C                  0.50432890    0.95288838    1.83261603
 C                  2.24465464    1.41753278    0.20537595
 C                 -0.14527150    0.13457060    0.89909844
 H                  0.09053470    1.08737351    2.80934708
 C                  1.59773041    0.59653170   -0.72622908
 H                  3.15847190    1.90776801   -0.05714380
 C                  0.40075074   -0.04307736   -0.37997882
 H                  2.01837723    0.45953095   -1.70111685
 F                 -0.22676914   -0.83156299   -1.27738593
 Cl                -1.64883012   -0.66837346    1.33463293
 O                  5.19931784    8.29491291    2.57713619
 N                  6.33403611    5.67506903    2.92138267
 H                  6.57805364    5.85287134    3.87608471
 C                  5.30040034    8.77330839    3.92179961
 C                  6.07181847   10.11056981    3.83708318
 C                  4.02113801    9.23467898    4.60030474
 H                  5.71465306    7.99908415    4.53503777
 O                  5.48110395   10.96776103    4.81518932
 H                  5.84627187   10.57911566    2.90017205
 H                  7.12914978    9.96494791    3.91068916
 C                  4.09485008   10.71317493    4.35703547
 H                  3.14637507    8.70848355    4.28333259
 H                  4.11541361    9.11695423    5.66192173
 H                  3.35671124   11.25430182    4.91299635
 H                  3.97488663   10.95931467    3.32181856
 C                  7.07607607    6.58004894    2.02499505
 C                  8.39164404    6.08611674    1.38458143
 H                  8.78654181    5.13125553    1.66382663
 C                  9.04228340    6.83852833    0.45698183
 H                  8.69608549    7.82273214    0.22000364
 C                 10.27961785    6.25484436   -0.26432838
 H                  9.95069873    5.71051075   -1.12538315
 H                 10.80222451    5.59859749    0.39743648
 N                 11.18085784    7.33494044   -0.69568856
 C                 10.45652484    8.23564027   -1.60595716
 H                 11.10838352    9.02007746   -1.92933494
 H                 10.11459520    7.68240745   -2.45569955
 H                  9.61662641    8.65924041   -1.09505306
 C                 12.34368402    6.75320995   -1.39626539
 H                 12.00679917    6.20197023   -2.24949245
 H                 13.00085742    7.53654645   -1.71540982
 H                 12.86878203    6.09821115   -0.73242247
 O                  6.63475459    7.73180993    1.77011079

 1 2 1.5 13 1.5 14 1.0
 2 3 1.5 6 1.5
 3 7 1.5 12 1.5
 4 8 1.0 12 1.5 13 1.5
 5 6 1.0
 6 10 1.5
 7 9 1.5 11 1.0
 8
 9 10 1.5 27 1.0
 10 28 1.0
 11
 12
 13
 14 15 1.0 16 1.0
 15
 16 17 1.5 18 1.5
 17 19 1.5 20 1.0
 18 21 1.5 22 1.0
 19 23 1.5 26 1.0
 20
 21 23 1.5 24 1.0
 22
 23 25 1.0
 24
 25
 26
 27 30 1.0
 28 29 1.0 42 1.0
 29
 30 31 1.0 32 1.0 33 1.0
 31 34 1.0 35 1.0 36 1.0
 32 37 1.0 38 1.0 39 1.0
 33
 34 37 1.0
 35
 36
 37 40 1.0 41 1.0
 38
 39
 40
 41
 42 43 1.0 59 2.0
 43 44 1.0 45 2.0
 44
 45 46 1.0 47 1.0
 46
 47 48 1.0 49 1.0 50 1.0
 48
 49
 50 51 1.0 55 1.0
 51 52 1.0 53 1.0 54 1.0
 52
 53
 54
 55 56 1.0 57 1.0 58 1.0
 56
 57
 58
 59

