%chk=D:\Msc Materials and Assignments\Semester 4\Project Work\Structures\Asp optimization.chk
# opt hf/6-31g geom=connectivity pop=full

Title Card Required

0 1
 N                 -0.24766677   -0.99033396    1.66977805
 H                 -0.93867841   -0.54480879    1.10055909
 H                  0.10453762   -1.79750586    1.19604227
 C                 -0.85225227   -1.39649211    2.94665390
 H                 -1.22911097   -0.53281817    3.45355119
 C                 -2.00739075   -2.37892709    2.67818304
 C                  0.21190566   -2.08260086    3.82325111
 H                 -2.74677321   -1.90221517    2.06911875
 H                 -1.63053206   -3.24260103    2.17128575
 C                 -2.64076604   -2.80442611    4.01586250
 O                  1.42175236   -1.75278944    3.71805632
 O                 -2.63400926   -2.01384910    4.99489922
 N                 -3.19812142   -4.01442645    4.13708730
 H                 -3.60940580   -4.29072377    5.00570974
 H                 -3.20348969   -4.64266673    3.35908645
 O                 -0.17477348   -3.09448756    4.75677376
 H                  0.42800436   -3.08777949    5.50391089

 1 2 1.0 3 1.0 4 1.0
 2
 3
 4 5 1.0 6 1.0 7 1.0
 5
 6 8 1.0 9 1.0 10 1.0
 7 11 2.0 16 1.0
 8
 9
 10 12 2.0 13 1.5
 11
 12
 13 14 1.0 15 1.0
 14
 15
 16 17 1.0
 17

